20
32
0 1 20 3.2
0 2 2 32.4
0 3 8 1.4
0 4 3 32.4
0 5 4 32.4
0 6 8 1.8
0 7 3 32.4
0 8 2 32.4
0 9 1 32.4
0 10 3 32.4
0 11 4 32.4
0 12 2 32.4
0 13 2 32.4
0 14 5 32.4
0 15 2 32.4
0 16 4 32.4
0 17 3 32.4
0 18 4 32.4
0 19 1 32.4
1 2 2 32.4
1 3 3 32.4
1 4 8 1.8
1 5 1 32.4
1 6 4 32.4
1 7 1 32.4
1 8 8 1.4
1 9 3 32.4
1 10 5 32.4
1 11 6 32.4
1 12 5 32.4
1 13 4 32.4
1 14 3 32.4
1 15 3 32.4
1 16 2 32.4
1 17 4 32.4
1 18 3 32.4
1 19 4 32.4
2 3 12 3.2
2 4 2 32.4
2 5 8 1.2
2 6 1 32.4
2 7 8 1
2 8 3 32.4
2 9 8 0.8
2 10 3 32.4
2 11 4 32.4
2 12 2 32.4
2 13 2 32.4
2 14 3 32.4
2 15 3 32.4
2 16 2 32.4
2 17 3 32.4
2 18 2 32.4
2 19 4 32.4
3 4 3 32.4
3 5 2 32.4
3 6 7 2
3 7 1 32.4
3 8 2 32.4
3 9 1 32.4
3 10 2 32.4
3 11 3 32.4
3 12 3 32.4
3 13 2 32.4
3 14 3 32.4
3 15 1 32.4
3 16 4 32.4
3 17 5 32.4
3 18 3 32.4
3 19 2 32.4
4 5 3 3.2
4 6 2 32.4
4 7 1 32.4
4 8 8 2
4 9 1 32.4
4 10 3 32.4
4 11 4 32.4
4 12 3 32.4
4 13 2 32.4
4 14 4 32.4
4 15 3 32.4
4 16 2 32.4
4 17 5 32.4
4 18 1 32.4
4 19 1 32.4
5 6 2 32.4
5 7 7 0.8
5 8 1 32.4
5 9 7 1
5 10 2 32.4
5 11 1 32.4
5 12 3 32.4
5 13 4 32.4
5 14 2 32.4
5 15 3 32.4
5 16 3 32.4
5 17 1 32.4
5 18 3 32.4
5 19 2 32.4
6 7 23 3.2
6 8 2 32.4
6 9 1 32.4
6 10 2 32.4
6 11 4 32.4
6 12 3 32.4
6 13 1 32.4
6 14 2 32.4
6 15 4 32.4
6 16 3 32.4
6 17 2 32.4
6 18 3 32.4
6 19 1 32.4
7 8 3 32.4
7 9 7 0.4
7 10 2 32.4
7 11 3 32.4
7 12 1 32.4
7 13 5 32.4
7 14 4 32.4
7 15 3 32.4
7 16 2 32.4
7 17 3 32.4
7 18 1 32.4
7 19 3 32.4
8 9 23 3.4
8 10 2 32.4
8 11 1 32.4
8 12 3 32.4
8 13 2 32.4
8 14 3 32.4
8 15 3 32.4
8 16 4 32.4
8 17 3 32.4
8 18 5 32.4
8 19 2 32.4
9 10 1 32.4
9 11 1 32.4
9 12 2 32.4
9 13 4 32.4
9 14 4 32.4
9 15 3 32.4
9 16 5 32.4
9 17 3 32.4
9 18 3 32.4
9 19 3 32.4
10 11 20 3.2
10 12 2 32.4
10 13 8 1.4
10 14 3 32.4
10 15 4 32.4
10 16 8 1.8
10 17 3 32.4
10 18 2 32.4
10 19 1 32.4
11 12 2 32.4
11 13 3 32.4
11 14 8 1.8
11 15 1 32.4
11 16 4 32.4
11 17 1 32.4
11 18 8 1.4
11 19 3 32.4
12 13 12 3.2
12 14 2 32.4
12 15 8 1.2
12 16 1 32.4
12 17 8 1
12 18 3 32.4
12 19 8 0.8
13 14 3 32.4
13 15 2 32.4
13 16 7 2
13 17 1 32.4
13 18 2 32.4
13 19 1 32.4
14 15 3 3.2
14 16 2 32.4
14 17 1 32.4
14 18 8 2
14 19 1 32.4
15 16 2 32.4
15 17 7 0.8
15 18 1 32.4
15 19 7 1
16 17 23 3.2
16 18 2 32.4
16 19 1 32.4
17 18 3 32.4
17 19 7 0.4
18 19 23 3.4
